  104   84   96
    0    0    0   47   48   46
   47    0    0   45   46   44
   92    0    0   12   13   11
   92    0   11   11   12   10
  103    0   11    1    3    2
   92    0   21    9   10    8
  101    0   21    3    4    2
   92    0   29    8    9    7
  100    0   29    4    6    5
   92    0   36    6    7    5
   47    0   44   44   45   43
   91    0   44   13   15   14
    5    0   46   42   43   41
    0   48    0   30   28   29
   30   48    0   27   28   26
   57   48    0   26   27   25
   83   48    0   21   22   20
   83   48   20   20   21   19
   57   48   25   24   25   23
   34   48   26   23   24   22
   16   48   29   18   19   17
    0   48   29   16   18   17
   81   48   39   15   16   14
    0   48   53   31   29   30
   31   48   53   33   31   32
   64   48   53   34   32   33
